; benchmark generated from python API
(set-info :status unknown)
(declare-datatypes ((RealState 0)) (((RMk1 (rval1 Real)) (RMk2 (rval2 Real)))))
 (assert
 (forall ((|v9:0| Real) )(exists ((|v8:1_st| RealState) (val!420 Real) )(forall ((|v7:2| Real) )(exists ((|v6:3_st| RealState) (val!421 Real) )(forall ((|v5:4| Real) )(exists ((|v4:5_st| RealState) (val!422 Real) )(forall ((|v3:6| Real) )(exists ((|v2:7_st| RealState) (val!423 Real) )(forall ((|v1:8| Real) )(exists ((|v0:9_st| RealState) (val!424 Real) )(let ((?x920 (+ (+ (* (- 15.0) (rval2 |v6:3_st|)) (* (- 5.0) (rval2 |v0:9_st|))) (* 16.0 |v1:8|))))
 (let ((?x1062 (+ (+ (* 0.0 (rval2 |v4:5_st|)) (* (- 13.0) (rval2 |v2:7_st|))) (* 2.0 |v7:2|))))
 (let ((?x698 (- 19.0)))
 (let ((?x297 (rval2 |v4:5_st|)))
 (let ((?x1167 (* 0.0 ?x297)))
 (let (($x879 (<= (+ (+ (* (- 4.0) (rval2 |v6:3_st|)) (* 19.0 (rval2 |v6:3_st|))) ?x1167) ?x698)))
 (let ((?x121 (rval2 |v2:7_st|)))
 (let ((?x726 (- 18.0)))
 (let ((?x1351 (* ?x726 ?x121)))
 (let ((?x1324 (+ (+ (* (- 17.0) (rval2 |v0:9_st|)) (* (- 9.0) (rval2 |v8:1_st|))) ?x1351)))
 (let ((?x956 (* 2.0 |v5:4|)))
 (let (($x676 (<= (+ (+ (* 18.0 (rval2 |v6:3_st|)) (* 14.0 (rval2 |v8:1_st|))) ?x956) 4.0)))
 (let ((?x753 (+ (+ (* ?x726 (rval2 |v6:3_st|)) (* (- 3.0) ?x121)) (* (- 15.0) |v7:2|))))
 (let ((?x1033 (- 13.0)))
 (let ((?x476 (+ (+ (* 11.0 ?x121) (* (- 14.0) (rval2 |v8:1_st|))) (* (- 9.0) (rval2 |v0:9_st|)))))
 (let (($x406 (and (<= (+ (+ (* 8.0 |v3:6|) ?x1351) (* ?x698 |v9:0|)) 4.0) (<= ?x476 ?x1033))))
 (let (($x779 (and (and $x406 (or (<= ?x753 15.0) $x676)) (or (<= ?x1324 17.0) (or $x879 (<= ?x1062 8.0))))))
 (let (($x1385 (<= (+ (+ (* (- 7.0) |v9:0|) (* ?x1033 |v1:8|)) (* 13.0 ?x121)) 20.0)))
 (let ((?x1336 (- 15.0)))
 (let (($x1222 (<= (+ (+ (* ?x1336 |v1:8|) (* (- 6.0) |v9:0|)) (* 9.0 (rval2 |v6:3_st|))) ?x1336)))
 (let ((?x975 (+ (+ (* (- 3.0) (rval2 |v0:9_st|)) (* (- 7.0) ?x297)) (* (- 6.0) |v5:4|))))
 (let (($x203 (<= (+ (+ (* (- 14.0) ?x121) (* 14.0 (rval2 |v6:3_st|))) (* 14.0 |v9:0|)) 9.0)))
 (let ((?x664 (- 5.0)))
 (let (($x1105 (<= (+ (+ (* (- 8.0) |v5:4|) (* 10.0 ?x121)) (* 15.0 |v9:0|)) ?x664)))
 (let ((?x964 (- 3.0)))
 (let ((?x469 (+ (+ (* (- 7.0) |v7:2|) (* (- 16.0) |v9:0|)) (* (- 10.0) (rval2 |v0:9_st|)))))
 (let (($x129 (<= (+ (+ (* (- 2.0) |v3:6|) (* 14.0 (rval2 |v8:1_st|))) (* 0.0 |v1:8|)) 0.0)))
 (let (($x1040 (or (and (and $x129 (<= ?x469 ?x964)) (and $x1105 $x203)) (or (<= ?x975 3.0) (or $x1222 $x1385)))))
 (let (($x945 (not (= |v0:9_st| (RMk1 val!424)))))
 (let (($x729 (not (= |v2:7_st| (RMk1 val!423)))))
 (let (($x655 (not (= |v4:5_st| (RMk1 val!422)))))
 (let (($x501 (not (= |v6:3_st| (RMk1 val!421)))))
 (let (($x699 (not (= |v8:1_st| (RMk1 val!420)))))
 (and $x699 $x501 $x655 $x729 $x945 (or (and $x1040 $x779) (<= ?x920 12.0)))))))))))))))))))))))))))))))))))))
 )
 )
 )
 )
 )
 )
 )
 )
 )
 )
(check-sat)
